49 48 13 94 99 86 65 42 18 75 4 67 61 78 9 39 25 6 58 50 88 96 8 21 30 28 57 12 34 81 71 24 70 31 43 92 2 35 98 97 74 41 63 77 72 85 69 33 22 44 51 27 3 84 5 7 19 79 93 82 91 29 64 68 73 15 40 60 56 1 66 52 37 38 46 90 53 26 80 11 45 14 47 0 62 55 16 59 95 10 32 17 36 83 89 54 76 87 20 23 

